webassembly/ejemplos_dzn/folder9_json_78.dzn
TERM = { '.', 's(5)', 's(2)', 's(4)', 'in_1', 'local_0', 'in_2', 'in_3', 's(6)', 's(1)', 's(0)', 's(3)', 'in_0'};
null = '.';
s = 9;
n = 9;
ndeps = 0;
max_registers_sz = 4;
NR = 1;
registers = [|'local_0', 'in_0'|];
dependencies = [| |];
GET_ENUM = { GET1, GET2, GET3, GET4, GET5};
SET_ENUM = { SET1, SET2, SET3, SET4, SET5};
TEE_ENUM = { TEE1, TEE2, TEE3, TEE4, TEE5};
N = 7;
OP = { 'i32.load16_u_1', 'i32.load8_u_5', 'i32.load_6', 'i32.add_0', 'i32.sub_0', 'i32.sub_1', 'i32.load_8' };
in_ops = [1, 1, 1, 2, 2, 2, 1 ];
out_ops = [1, 1, 1, 1, 1, 1, 1 ];
in1 = ['in_1', 'in_0', 's(3)', 's(0)', 's(1)', 's(4)', 's(5)' ];
in2 = ['.', '.', '.', 'in_2', 'in_3', 's(2)', '.' ];
in3 = ['.', '.', '.', '.', '.', '.', '.' ];
out1 = ['s(0)', 's(3)', 's(4)', 's(1)', 's(2)', 's(5)', 's(6)' ];
out2 = ['.', '.', '.', '.', '.', '.', '.' ];
out3 = ['.', '.', '.', '.', '.', '.', '.' ];
comm = [false, false, false, true, false, false, false ];
gas = [1, 1, 1, 1, 1, 1, 1 ];
sz = [1, 1, 1, 1, 1, 1, 1 ];
stor = [false, false, false, false, false, false, false ];
lb = [ 1, 1, 1, 1, 1, 1, 1 ];
ub = [ 9, 9, 9, 9, 9, 9, 9 ];
startstack = [ 'in_0', 'in_1', 'in_2', 'in_3', null, null, null, null, null ];
endstack = [ 's(6)', null, null, null, null, null, null, null, null ];
